N = 50;
MinK = 8;
Capacity = 200;

Scale = 10;
DistanceRoundingMode = Floor;
X = array1d(0..N, [40, 25, 22, 22, 20, 20, 18, 15, 15, 10, 10, 8, 8, 5, 5, 2, 0, 0, 44, 42, 42, 40, 40, 38, 38, 35, 95, 95, 92, 90, 88, 88, 87, 85, 85, 67, 65, 65, 62, 60, 60, 58, 55, 55, 55, 20, 18, 2, 42, 42, 72]);
Y = array1d(0..N, [50, 85, 75, 85, 80, 85, 75, 75, 80, 35, 40, 40, 45, 35, 45, 40, 40, 45, 5, 10, 15, 5, 15, 5, 15, 5, 30, 35, 30, 35, 30, 35, 30, 25, 35, 85, 85, 82, 80, 80, 85, 75, 80, 85, 82, 82, 80, 45, 5, 12, 35]);

Demands = array1d(1..N, [20, 30, 10, 40, 20, 20, 20, 10, 20, 30, 40, 20, 10, 10, 20, 20, 20, 20, 40, 10, 10, 40, 30, 10, 20, 30, 20, 10, 10, 10, 20, 10, 10, 30, 20, 40, 10, 30, 10, 30, 20, 10, 20, 10, 10, 10, 10, 10, 10, 30]);

ServiceTimes = array1d(1..N, [10, 10, 10, 10, 10, 10, 10, 10, 10, 10, 10, 10, 10, 10, 10, 10, 10, 10, 10, 10, 10, 10, 10, 10, 10, 10, 10, 10, 10, 10, 10, 10, 10, 10, 10, 10, 10, 10, 10, 10, 10, 10, 10, 10, 10, 10, 10, 10, 10, 10]);

TimeWindows = array2d(1..2, 0..N, [|
    0, 145, 50, 109, 141, 41,  95,  79,  91,  91, 119, 59, 64, 142, 35, 58,  72, 149,  87,  72, 122, 67,  92, 65, 148, 154, 115, 62, 62, 67,  74, 61, 131, 51, 111, 139, 43, 124,  75, 37,  85,  92, 33, 128, 64, 37, 113, 45, 151, 104, 116 |
  240, 175, 80, 139, 171, 71, 125, 109, 121, 121, 149, 89, 94, 172, 65, 88, 102, 179, 117, 102, 152, 97, 122, 95, 178, 184, 145, 92, 92, 97, 104, 91, 161, 81, 141, 169, 73, 154, 105, 67, 115, 122, 63, 158, 94, 67, 143, 75, 181, 134, 146
|]);
